instances/in_40_20_6_3.dzn
n = 40;
k = 20;
h = 6;
tiles = array2d(1..n, 1..2,
[ 1,3
, 4,6
, 15,12
, 13,2
, 10,19
, 15,2
, 14,8
, 2,15
, 3,16
, 5,14
, 10,19
, 4,9
, 7,7
, 3,1
, 16,5
, 17,11
, 7,16
, 6,9
, 4,17
, 14,5
, 14,19
, 11,7
, 6,11
, 10,19
, 2,1
, 7,16
, 16,16
, 14,6
, 13,7
, 2,8
, 15,14
, 16,3
, 9,9
, 16,5
, 14,8
, 2,16
, 12,8
, 15,1
, 12,4
, 4,9
]);