instances/in_40_20_6_3.lp
#const n = 40.
#const k = 20.
#const h = 6.
tile(1,1,3).
tile(2,4,6).
tile(3,15,12).
tile(4,13,2).
tile(5,10,19).
tile(6,15,2).
tile(7,14,8).
tile(8,2,15).
tile(9,3,16).
tile(10,5,14).
tile(11,10,19).
tile(12,4,9).
tile(13,7,7).
tile(14,3,1).
tile(15,16,5).
tile(16,17,11).
tile(17,7,16).
tile(18,6,9).
tile(19,4,17).
tile(20,14,5).
tile(21,14,19).
tile(22,11,7).
tile(23,6,11).
tile(24,10,19).
tile(25,2,1).
tile(26,7,16).
tile(27,16,16).
tile(28,14,6).
tile(29,13,7).
tile(30,2,8).
tile(31,15,14).
tile(32,16,3).
tile(33,9,9).
tile(34,16,5).
tile(35,14,8).
tile(36,2,16).
tile(37,12,8).
tile(38,15,1).
tile(39,12,4).
tile(40,4,9).
